
Gurobi 12.0.2 (win64) logging started Thu Jun  5 16:49:08 2025

Set parameter LogFile to value "C:\Ioana\_uni\honours\slp\algorithm\Main_files\results\paracetamol_final_i_hope\Task_003_Sample002_irr_gurobi.log"
Gurobi Optimizer version 12.0.2 build v12.0.2rc0 (win64 - Windows 11.0 (26100.2))

CPU model: Intel(R) Core(TM) Ultra 5 125H, instruction set [SSE2|AVX|AVX2]
Thread count: 14 physical cores, 18 logical processors, using up to 18 threads

Non-default parameters:
TimeLimit  2200

Optimize a model with 47236 rows, 34517 columns and 146727 nonzeros
Model fingerprint: 0xf75a83b7
Variable types: 17268 continuous, 17249 integer (17249 binary)
Coefficient statistics:
  Matrix range     [1e-04, 8e+04]
  Objective range  [4e-04, 9e-01]
  Bounds range     [1e+00, 1e+03]
  RHS range        [1e+00, 1e+00]
Presolve removed 30818 rows and 21544 columns
Presolve time: 0.38s
Presolved: 16418 rows, 12973 columns, 54717 nonzeros
Variable types: 6425 continuous, 6548 integer (6548 binary)
Found heuristic solution: objective 10.7717451

Root relaxation: objective 9.717094e-01, 3091 iterations, 0.24 seconds (0.57 work units)

    Nodes    |    Current Node    |     Objective Bounds      |     Work
 Expl Unexpl |  Obj  Depth IntInf | Incumbent    BestBd   Gap | It/Node Time

     0     0    0.97171    0    2   10.77175    0.97171  91.0%     -    0s
H    0     0                       1.1779825    0.97171  17.5%     -    0s
     0     0    0.97171    0    2    1.17798    0.97171  17.5%     -    0s

Explored 1 nodes (3091 simplex iterations) in 0.75 seconds (1.03 work units)
Thread count was 18 (of 18 available processors)

Solution count 2: 1.17798 10.7717 

Optimal solution found (tolerance 1.00e-04)
Best objective 1.177982472560e+00, best bound 1.177982472560e+00, gap 0.0000%
